results_rootrelaxation/bin012_090_033.srr.sol
solution status: optimal solution found
objective value:                                   32
_var61_                             0.666666666666667 	(obj:0)
_var268_                            0.333333333333337 	(obj:4)
_var724_                            0.666666666666673 	(obj:2)
_var728_                            0.333333333333332 	(obj:4)
_var736_                            0.333333333333336 	(obj:5)
_var742_                            0.333333333333336 	(obj:4)
_var754_                            0.666666666666667 	(obj:3)
_var755_                            0.333333333333336 	(obj:3)
_var775_                            0.333333333333335 	(obj:4)
_var795_                            0.333333333333336 	(obj:3)
_var807_                            0.333333333333336 	(obj:4)
_var812_                            0.333333333333332 	(obj:2)
_var813_                            0.333333333333336 	(obj:5)
_var815_                            0.666666666666667 	(obj:2)
_var816_                            0.333333333333337 	(obj:3)
_var818_                            0.333333333333332 	(obj:4)
_var822_                            0.666666666666672 	(obj:2)
_var828_                            0.333333333333333 	(obj:2)
_var830_                            0.333333333333337 	(obj:5)
_var832_                            0.666666666666666 	(obj:2)
_var842_                            0.333333333333334 	(obj:3)
_var844_                            0.333333333333332 	(obj:3)
_var849_                            0.333333333333335 	(obj:4)
_var857_                            0.333333333333336 	(obj:5)
_var858_                            0.333333333333337 	(obj:1)
_var861_                            0.333333333333336 	(obj:3)
_var869_                            0.333333333333339 	(obj:3)
